4639 8448
2849 4577
9872 5932
9809 3203
9790 5145
823 7431
607 8380
7451 6441
7538 8856
5849 8521
6813 8167
4983 4230
879 5080
4622 4834
1052 1362
5593 2810
5095 6161
5188 7862
9769 8535
9260 6550
2776 2111
2007 6563
327 6936
2717 9545
1838 6770
8589 6070
459 9252
846 3602
8643 2206
2371 512
3240 1681
2592 9663
7953 9429
4857 5157
46 3280
6879 6106
455 8223
6188 4642
1711 1167
4699 6492
8324 7358
8331 6168
3937 6514
4247 5096
7287 5962
7238 6325
4651 5149
8897 6112
40 6186
4225 6209
